p cnf 14 42
-14 13 8 0
-14 12 -3 0
14 11 -5 0
14 10 -6 0
-14 -10 5 0
14 -10 -1 0
14 -9 -4 0
14 -9 -1 0
14 2 1 0
-13 12 9 0
-13 -12 8 0
13 -12 2 0
13 -9 6 0
13 -8 -7 0
-13 -8 3 0
13 -3 -2 0
-12 -11 -4 0
-12 -10 -6 0
-12 -10 2 0
-12 10 2 0
12 6 -5 0
12 -5 4 0
12 -5 -2 0
-11 -8 7 0
-11 -8 -2 0
11 -5 -4 0
-11 5 -2 0
-10 9 -6 0
-10 9 6 0
-10 -8 3 0
-10 8 2 0
10 6 -5 0
10 -6 -3 0
-10 6 -2 0
-10 -5 -2 0
-9 3 -2 0
9 -3 2 0
8 5 2 0
7 4 -3 0
7 -4 3 0
7 -2 -1 0
4 -2 1 0
